(set-logic HORN)
(declare-fun inv ((_ BitVec 32) (_ BitVec 32) (_ BitVec 32) ) Bool)
(assert (forall ((i (_ BitVec 32)) (j (_ BitVec 32)) (k (_ BitVec 32))) 
       (=> ( and ( = i (_ bv0 32) ) ( bvsle ( bvmul i j ) k ) ) (inv i j k))))
(assert (forall ((i (_ BitVec 32)) (j (_ BitVec 32)) (k (_ BitVec 32)) (i! (_ BitVec 32)) (j! (_ BitVec 32)) (k! (_ BitVec 32))) 
       (=> (and (inv i j k) ( and ( bvslt j (_ bv1000 32) ) ( = i! ( bvadd i (_ bv1 32) ) ) ( = j! j ) ( = k! ( bvadd k j ) ) )) (inv i! j! k!))))
(assert (forall ((i (_ BitVec 32)) (j (_ BitVec 32)) (k (_ BitVec 32))) 
       (=> (inv i j k) ( or ( bvslt j (_ bv1000 32) ) ( bvsle ( bvmul i j ) k ) ))))
(check-sat)
